maximize
OBJ:100x0 + 100x1 + 100x2 + 100x3 + 100x4 + 100x5 + 100x6 + 100x7 + 100x8 + 100x9 + 100x10 + 100x11 + 100x12 + 100x13 + 100x14 + 100x15 + 100x16 + 100x17 + 100x18 + 100x19 + 100x20 + 100x21 + 100x22 + 100x23 + 100x24 + 100x25 + 100x26 + 100x27 + 100x28 + 100x29 + 100x30 + 100x31 + 100x32 + 100x33 + 100x34 + 100x35 + 100x36 + 100x37 + 100x38 + 100x39 + 100x40 + 100x41 + 100x42 + 100x43 + 100x44 + 100x45 + 100x46 + 100x47 + 100x48 + 100x49 + 100x50 + 100x51 + 100x52 + 100x53 + 100x54 + 100x55 + 100x56 + 100x57 + 100x58 + 100x59 + 100x60 + 100x61 + 100x62 + 100x63 + 100x64 + 100x65 + 100x66 - y47_53 - y15_30 - y47_62 - y26_39 - y17_58 - y28_58 - y7_35 - y18_35 - y5_65 - y29_32 - y18_44 - y0_5 - y40_41 - y6_48 - y29_59 - y10_36 - y33_38 - y41_51 - y25_43 - y10_54 - y33_56 - y25_52 - y14_15 - y10_63 - y32_60 - y22_46 - y35_65 - y3_42 - y14_51 - y15_25 - y47_57 - y7_30 - y17_62 - y28_62 - y9_58 - y21_32 - y0_9 - y6_43 - y21_50 - y29_63 - y40_63 - y25_29 - y10_40 - y25_38 - y10_49 - y3_10 - y22_23 - y14_19 - y32_55 - y3_28 - y32_64 - y24_60 - y35_60 - y36_43 - y55_56 - y17_39 - y36_52 - y47_52 - y55_65 - y59_63 - y28_57 - y21_27 - y29_40 - y48_53 - y21_36 - y6_47 - y21_54 - y10_17 - y2_13 - y54_60 - y25_33 - y10_44 - y2_49 - y35_46 - y14_32 - y17_25 - y36_38 - y9_30 - y5_41 - y36_56 - y47_56 - y28_52 - y9_48 - y6_24 - y21_22 - y6_33 - y42_63 - y21_49 - y39_57 - y31_53 - y54_55 - y10_30 - y2_26 - y54_64 - y23_58 - y3_9 - y4_63 - y32_54 - y13_50 - y35_50 - y1_57 - y1_66 - y16_64 - y5_27 - y17_38 - y28_38 - y36_51 - y9_34 - y5_45 - y28_47 - y50_53 - y5_63 - y6_28 - y29_30 - y9_61 - y27_60 - y50_62 - y6_37 - y12_44 - y2_21 - y31_57 - y12_53 - y20_66 - y4_49 - y23_62 - y13_27 - y24_27 - y4_58 - y32_40 - y43_58 - y16_41 - y1_52 - y13_54 - y9_11 - y16_59 - y9_20 - y5_31 - y17_33 - y9_47 - y58_61 - y50_66 - y19_60 - y11_56 - y10_11 - y2_7 - y20_43 - y12_39 - y2_16 - y20_52 - y31_52 - y12_48 - y31_61 - y54_63 - y23_57 - y32_35 - y32_44 - y43_44 - y1_38 - y24_40 - y43_53 - y13_49 - y5_8 - y35_58 - y16_54 - y57_64 - y49_60 - y17_37 - y28_37 - y30_55 - y42_57 - y0_51 - y19_64 - y20_29 - y42_66 - y11_60 - y12_25 - y23_34 - y2_11 - y20_47 - y31_47 - y23_43 - y39_60 - y31_65 - y13_35 - y24_35 - y4_66 - y13_44 - y1_51 - y5_12 - y46_50 - y9_10 - y38_46 - y46_59 - y57_59 - y26_53 - y49_55 - y5_39 - y6_13 - y50_56 - y11_37 - y27_63 - y8_59 - y0_55 - y20_33 - y23_29 - y20_42 - y4_25 - y31_42 - y12_56 - y1_19 - y13_21 - y13_30 - y16_26 - y22_60 - y1_37 - y34_62 - y16_35 - y1_46 - y38_41 - y15_48 - y38_59 - y49_59 - y18_53 - y27_31 - y19_45 - y11_41 - y8_63 - y60_64 - y39_41 - y4_29 - y44_65 - y12_42 - y1_14 - y34_48 - y53_61 - y16_21 - y22_55 - y1_32 - y3_51 - y37_53 - y45_57 - y56_66 - y14_60 - y37_62 - y15_34 - y5_11 - y15_43 - y7_39 - y49_54 - y18_57 - y11_18 - y8_31 - y11_27 - y27_53 - y0_36 - y30_49 - y12_19 - y20_32 - y33_51 - y12_28 - y44_60 - y25_56 - y1_9 - y22_41 - y34_43 - y1_18 - y22_50 - y37_48 - y45_61 - y5_6 - y18_25 - y18_34 - y26_47 - y26_56 - y7_52 - y18_52 - y27_30 - y7_61 - y19_26 - y27_39 - y11_22 - y8_44 - y33_46 - y4_19 - y33_55 - y44_55 - y4_28 - y10_62 - y3_32 - y34_47 - y3_41 - y22_54 - y37_52 - y15_33 - y26_33 - y7_29 - y7_38 - y7_47 - y8_12 - y7_56 - y29_53 - y8_30 - y19_30 - y63_64 - y4_5 - y33_50 - y25_55 - y2_62 - y25_64 - y37_56 - y3_63 - y15_28 - y26_28 - y55_64 - y47_60 - y59_62 - y15_37 - y7_33 - y18_33 - y26_46 - y28_65 - y7_42 - y8_16 - y48_52 - y11_12 - y48_61 - y21_44 - y29_57 - y40_57 - y21_53 - y41_49 - y4_9 - y33_54 - y22_26 - y51_62 - y14_31 - y22_44 - y14_49 - y36_55 - y47_55 - y15_32 - y26_32 - y7_28 - y47_64 - y17_60 - y18_37 - y29_34 - y40_43 - y48_56 - y21_39 - y6_50 - y40_52 - y48_65 - y10_29 - y41_44 - y25_36 - y25_54 - y3_17 - y51_66 - y32_62 - y43_62 - y14_44 - y16_63 - y36_59 - y9_42 - y5_53 - y48_51 - y6_45 - y29_56 - y10_15 - y2_29 - y25_31 - y2_38 - y2_47 - y3_12 - y32_48 - y22_25 - y51_61 - y2_56 - y14_21 - y32_57 - y43_57 - y35_53 - y1_60 - y24_62 - y55_58 - y17_41 - y28_41 - y5_48 - y9_46 - y5_57 - y58_60 - y9_64 - y50_65 - y29_42 - y40_42 - y29_51 - y21_47 - y6_58 - y10_19 - y39_55 - y20_60 - y10_37 - y2_33 - y2_42 - y32_52 - y13_48 - y32_61 - y16_44 - y43_61 - y17_18 - y36_40 - y9_23 - y36_49 - y5_43 - y5_52 - y6_17 - y5_61 - y50_60 - y21_33 - y20_46 - y31_46 - y10_23 - y2_19 - y23_51 - y13_34 - y4_65 - y51_60 - y24_43 - y16_39 - y13_52 - y16_57 - y16_66 - y17_31 - y36_44 - y5_38 - y6_12 - y5_56 - y50_55 - y6_30 - y21_28 - y50_64 - y8_58 - y11_63 - y39_45 - y20_41 - y10_18 - y31_50 - y62_65 - y12_46 - y31_59 - y4_51 - y23_64 - y13_29 - y24_29 - y16_25 - y1_36 - y13_47 - y24_56 - y16_52 - y5_15 - y5_42 - y5_51 - y6_16 - y6_25 - y8_53 - y19_53 - y30_53 - y42_55 - y8_62 - y31_36 - y31_45 - y12_41 - y23_41 - y20_63 - y23_59 - y24_42 - y35_42 - y1_49 - y5_10 - y38_44 - y9_17 - y57_66 - y9_26 - y18_65 - y8_39 - y27_52 - y8_48 - y30_48 - y0_44 - y8_57 - y20_22 - y42_59 - y11_53 - y8_66 - y20_40 - y4_23 - y39_53 - y23_36 - y20_49 - y4_41 - y53_55 - y53_64 - y16_33 - y1_44 - y37_65 - y16_42 - y38_39 - y46_52 - y38_48 - y57_61 - y15_55 - y18_51 - y26_64 - y49_66 - y27_38 - y27_47 - y8_43 - y42_45 - y8_52 - y42_54 - y11_48 - y30_61 - y0_57 - y31_35 - y11_66 - y20_44 - y1_3 - y34_46 - y1_21 - y53_59 - y4_54 - y34_55 - y37_51 - y14_58 - y5_9 - y46_56 - y15_50 - y57_65 - y18_46 - y15_59 - y19_20 - y7_64 - y8_29 - y0_25 - y11_25 - y30_38 - y0_34 - y42_49 - y0_52 - y52_53 - y20_30 - y4_13 - y60_66 - y52_62 - y4_22 - y23_44 - y1_7 - y53_54 - y34_50 - y34_59 - y22_66 - y14_62 - y37_64 - y18_32 - y15_54 - y26_54 - y15_63 - y26_63 - y27_28 - y8_24 - y19_24 - y0_20 - y19_33 - y0_38 - y11_38 - y12_21 - y52_57 - y12_30 - y23_30 - y41_66 - y34_36 - y1_11 - y1_20 - y14_39 - y37_41 - y22_52 - y45_54 - y56_63 - y3_57 - y14_57 - y37_59 - y14_66 - y26_31 - y7_27 - y18_27 - y15_40 - y38_42 - y18_36 - y15_49 - y26_49 - y7_45 - y18_45 - y26_58 - y0_24 - y8_37 - y0_33 - y21_65 - y41_43 - y60_65 - y4_12 - y44_48 - y41_61 - y44_57 - y1_6 - y22_38 - y34_40 - y22_56 - y14_52 - y15_26 - y7_22 - y59_60 - y26_35 - y7_31 - y15_44 - y18_49 - y8_23 - y6_53 - y40_55 - y30_32 - y21_51 - y41_47 - y4_16 - y44_52 - y41_65 - y2_46 - y44_61 - y14_20 - y25_66 - y14_29 - y34_44 - y37_40 - y22_51 - y14_47 - y14_56
 Subject to
C1: x0+x1 <=1 
C2: x0+x3 <=1 
C3: x0+x4 <=1 
C4: x0+x5-y0_5 <=1 
C5: x0+x6 <=1 
C6: x0+x7 <=1 
C7: x0+x9-y0_9 <=1 
C8: x0+x13 <=1 
C9: x0+x15 <=1 
C10: x0+x18 <=1 
C11: x0+x19 <=1 
C12: x0+x20-y0_20 <=1 
C13: x0+x21 <=1 
C14: x0+x22 <=1 
C15: x0+x24-y0_24 <=1 
C16: x0+x25-y0_25 <=1 
C17: x0+x27 <=1 
C18: x0+x31 <=1 
C19: x0+x32 <=1 
C20: x0+x33-y0_33 <=1 
C21: x0+x34-y0_34 <=1 
C22: x0+x35 <=1 
C23: x0+x36-y0_36 <=1 
C24: x0+x38-y0_38 <=1 
C25: x0+x40 <=1 
C26: x0+x41 <=1 
C27: x0+x44-y0_44 <=1 
C28: x0+x51-y0_51 <=1 
C29: x0+x52-y0_52 <=1 
C30: x0+x55-y0_55 <=1 
C31: x0+x57-y0_57 <=1 
C32: x0+x62 <=1 
C33: x0+x63 <=1 
C34: x0+x64 <=1 
C35: x0+x66 <=1 
C36: x1+x3-y1_3 <=1 
C37: x1+x6-y1_6 <=1 
C38: x1+x7-y1_7 <=1 
C39: x1+x9-y1_9 <=1 
C40: x1+x11-y1_11 <=1 
C41: x1+x12 <=1 
C42: x1+x14-y1_14 <=1 
C43: x1+x17 <=1 
C44: x1+x18-y1_18 <=1 
C45: x1+x19-y1_19 <=1 
C46: x1+x20-y1_20 <=1 
C47: x1+x21-y1_21 <=1 
C48: x1+x22 <=1 
C49: x1+x25 <=1 
C50: x1+x26 <=1 
C51: x1+x27 <=1 
C52: x1+x28 <=1 
C53: x1+x32-y1_32 <=1 
C54: x1+x36-y1_36 <=1 
C55: x1+x37-y1_37 <=1 
C56: x1+x38-y1_38 <=1 
C57: x1+x39 <=1 
C58: x1+x41 <=1 
C59: x1+x42 <=1 
C60: x1+x44-y1_44 <=1 
C61: x1+x46-y1_46 <=1 
C62: x1+x47 <=1 
C63: x1+x49-y1_49 <=1 
C64: x1+x50 <=1 
C65: x1+x51-y1_51 <=1 
C66: x1+x52-y1_52 <=1 
C67: x1+x53 <=1 
C68: x1+x54 <=1 
C69: x1+x55 <=1 
C70: x1+x57-y1_57 <=1 
C71: x1+x60-y1_60 <=1 
C72: x1+x65 <=1 
C73: x1+x66-y1_66 <=1 
C74: x2+x7-y2_7 <=1 
C75: x2+x11-y2_11 <=1 
C76: x2+x13-y2_13 <=1 
C77: x2+x14 <=1 
C78: x2+x15 <=1 
C79: x2+x16-y2_16 <=1 
C80: x2+x18 <=1 
C81: x2+x19-y2_19 <=1 
C82: x2+x21-y2_21 <=1 
C83: x2+x23 <=1 
C84: x2+x24 <=1 
C85: x2+x25 <=1 
C86: x2+x26-y2_26 <=1 
C87: x2+x28 <=1 
C88: x2+x29-y2_29 <=1 
C89: x2+x30 <=1 
C90: x2+x31 <=1 
C91: x2+x32 <=1 
C92: x2+x33-y2_33 <=1 
C93: x2+x35 <=1 
C94: x2+x36 <=1 
C95: x2+x37 <=1 
C96: x2+x38-y2_38 <=1 
C97: x2+x42-y2_42 <=1 
C98: x2+x44 <=1 
C99: x2+x46-y2_46 <=1 
C100: x2+x47-y2_47 <=1 
C101: x2+x48 <=1 
C102: x2+x49-y2_49 <=1 
C103: x2+x53 <=1 
C104: x2+x54 <=1 
C105: x2+x55 <=1 
C106: x2+x56-y2_56 <=1 
C107: x2+x57 <=1 
C108: x2+x62-y2_62 <=1 
C109: x2+x63 <=1 
C110: x2+x65 <=1 
C111: x3+x6 <=1 
C112: x3+x7 <=1 
C113: x3+x8 <=1 
C114: x3+x9-y3_9 <=1 
C115: x3+x10-y3_10 <=1 
C116: x3+x12-y3_12 <=1 
C117: x3+x16 <=1 
C118: x3+x17-y3_17 <=1 
C119: x3+x18 <=1 
C120: x3+x27 <=1 
C121: x3+x28-y3_28 <=1 
C122: x3+x30 <=1 
C123: x3+x32-y3_32 <=1 
C124: x3+x33 <=1 
C125: x3+x34 <=1 
C126: x3+x36 <=1 
C127: x3+x37 <=1 
C128: x3+x38 <=1 
C129: x3+x40 <=1 
C130: x3+x41-y3_41 <=1 
C131: x3+x42-y3_42 <=1 
C132: x3+x44 <=1 
C133: x3+x47 <=1 
C134: x3+x48 <=1 
C135: x3+x51-y3_51 <=1 
C136: x3+x57-y3_57 <=1 
C137: x3+x58 <=1 
C138: x3+x61 <=1 
C139: x3+x63-y3_63 <=1 
C140: x4+x5-y4_5 <=1 
C141: x4+x6 <=1 
C142: x4+x8 <=1 
C143: x4+x9-y4_9 <=1 
C144: x4+x12-y4_12 <=1 
C145: x4+x13-y4_13 <=1 
C146: x4+x14 <=1 
C147: x4+x16-y4_16 <=1 
C148: x4+x17 <=1 
C149: x4+x18 <=1 
C150: x4+x19-y4_19 <=1 
C151: x4+x21 <=1 
C152: x4+x22-y4_22 <=1 
C153: x4+x23-y4_23 <=1 
C154: x4+x25-y4_25 <=1 
C155: x4+x28-y4_28 <=1 
C156: x4+x29-y4_29 <=1 
C157: x4+x36 <=1 
C158: x4+x40 <=1 
C159: x4+x41-y4_41 <=1 
C160: x4+x42 <=1 
C161: x4+x44 <=1 
C162: x4+x46 <=1 
C163: x4+x47 <=1 
C164: x4+x49-y4_49 <=1 
C165: x4+x51-y4_51 <=1 
C166: x4+x53 <=1 
C167: x4+x54-y4_54 <=1 
C168: x4+x55 <=1 
C169: x4+x56 <=1 
C170: x4+x57 <=1 
C171: x4+x58-y4_58 <=1 
C172: x4+x60 <=1 
C173: x4+x61 <=1 
C174: x4+x62 <=1 
C175: x4+x63-y4_63 <=1 
C176: x4+x65-y4_65 <=1 
C177: x4+x66-y4_66 <=1 
C178: x5+x6-y5_6 <=1 
C179: x5+x7 <=1 
C180: x5+x8-y5_8 <=1 
C181: x5+x9-y5_9 <=1 
C182: x5+x10-y5_10 <=1 
C183: x5+x11-y5_11 <=1 
C184: x5+x12-y5_12 <=1 
C185: x5+x14 <=1 
C186: x5+x15-y5_15 <=1 
C187: x5+x16 <=1 
C188: x5+x18 <=1 
C189: x5+x21 <=1 
C190: x5+x22 <=1 
C191: x5+x27-y5_27 <=1 
C192: x5+x28 <=1 
C193: x5+x31-y5_31 <=1 
C194: x5+x33 <=1 
C195: x5+x35 <=1 
C196: x5+x38-y5_38 <=1 
C197: x5+x39-y5_39 <=1 
C198: x5+x41-y5_41 <=1 
C199: x5+x42-y5_42 <=1 
C200: x5+x43-y5_43 <=1 
C201: x5+x45-y5_45 <=1 
C202: x5+x46 <=1 
C203: x5+x48-y5_48 <=1 
C204: x5+x49 <=1 
C205: x5+x50 <=1 
C206: x5+x51-y5_51 <=1 
C207: x5+x52-y5_52 <=1 
C208: x5+x53-y5_53 <=1 
C209: x5+x54 <=1 
C210: x5+x55 <=1 
C211: x5+x56-y5_56 <=1 
C212: x5+x57-y5_57 <=1 
C213: x5+x60 <=1 
C214: x5+x61-y5_61 <=1 
C215: x5+x63-y5_63 <=1 
C216: x5+x65-y5_65 <=1 
C217: x5+x66 <=1 
C218: x6+x7 <=1 
C219: x6+x8 <=1 
C220: x6+x11 <=1 
C221: x6+x12-y6_12 <=1 
C222: x6+x13-y6_13 <=1 
C223: x6+x14 <=1 
C224: x6+x15 <=1 
C225: x6+x16-y6_16 <=1 
C226: x6+x17-y6_17 <=1 
C227: x6+x18 <=1 
C228: x6+x20 <=1 
C229: x6+x21 <=1 
C230: x6+x22 <=1 
C231: x6+x24-y6_24 <=1 
C232: x6+x25-y6_25 <=1 
C233: x6+x28-y6_28 <=1 
C234: x6+x29 <=1 
C235: x6+x30-y6_30 <=1 
C236: x6+x32 <=1 
C237: x6+x33-y6_33 <=1 
C238: x6+x36 <=1 
C239: x6+x37-y6_37 <=1 
C240: x6+x41 <=1 
C241: x6+x43-y6_43 <=1 
C242: x6+x45-y6_45 <=1 
C243: x6+x47-y6_47 <=1 
C244: x6+x48-y6_48 <=1 
C245: x6+x49 <=1 
C246: x6+x50-y6_50 <=1 
C247: x6+x51 <=1 
C248: x6+x53-y6_53 <=1 
C249: x6+x57 <=1 
C250: x6+x58-y6_58 <=1 
C251: x6+x60 <=1 
C252: x6+x62 <=1 
C253: x6+x63 <=1 
C254: x7+x11 <=1 
C255: x7+x15 <=1 
C256: x7+x16 <=1 
C257: x7+x18 <=1 
C258: x7+x20 <=1 
C259: x7+x22-y7_22 <=1 
C260: x7+x23 <=1 
C261: x7+x27-y7_27 <=1 
C262: x7+x28-y7_28 <=1 
C263: x7+x29-y7_29 <=1 
C264: x7+x30-y7_30 <=1 
C265: x7+x31-y7_31 <=1 
C266: x7+x32 <=1 
C267: x7+x33-y7_33 <=1 
C268: x7+x34 <=1 
C269: x7+x35-y7_35 <=1 
C270: x7+x38-y7_38 <=1 
C271: x7+x39-y7_39 <=1 
C272: x7+x40 <=1 
C273: x7+x42-y7_42 <=1 
C274: x7+x43 <=1 
C275: x7+x44 <=1 
C276: x7+x45-y7_45 <=1 
C277: x7+x46 <=1 
C278: x7+x47-y7_47 <=1 
C279: x7+x52-y7_52 <=1 
C280: x7+x56-y7_56 <=1 
C281: x7+x60 <=1 
C282: x7+x61-y7_61 <=1 
C283: x7+x64-y7_64 <=1 
C284: x7+x65 <=1 
C285: x7+x66 <=1 
C286: x8+x9 <=1 
C287: x8+x10 <=1 
C288: x8+x12-y8_12 <=1 
C289: x8+x13 <=1 
C290: x8+x15 <=1 
C291: x8+x16-y8_16 <=1 
C292: x8+x17 <=1 
C293: x8+x20 <=1 
C294: x8+x23-y8_23 <=1 
C295: x8+x24-y8_24 <=1 
C296: x8+x28 <=1 
C297: x8+x29-y8_29 <=1 
C298: x8+x30-y8_30 <=1 
C299: x8+x31-y8_31 <=1 
C300: x8+x32 <=1 
C301: x8+x34 <=1 
C302: x8+x35 <=1 
C303: x8+x37-y8_37 <=1 
C304: x8+x39-y8_39 <=1 
C305: x8+x40 <=1 
C306: x8+x42 <=1 
C307: x8+x43-y8_43 <=1 
C308: x8+x44-y8_44 <=1 
C309: x8+x48-y8_48 <=1 
C310: x8+x52-y8_52 <=1 
C311: x8+x53-y8_53 <=1 
C312: x8+x54 <=1 
C313: x8+x55 <=1 
C314: x8+x56 <=1 
C315: x8+x57-y8_57 <=1 
C316: x8+x58-y8_58 <=1 
C317: x8+x59-y8_59 <=1 
C318: x8+x62-y8_62 <=1 
C319: x8+x63-y8_63 <=1 
C320: x8+x65 <=1 
C321: x8+x66-y8_66 <=1 
C322: x9+x10-y9_10 <=1 
C323: x9+x11-y9_11 <=1 
C324: x9+x15 <=1 
C325: x9+x17-y9_17 <=1 
C326: x9+x18 <=1 
C327: x9+x20-y9_20 <=1 
C328: x9+x23-y9_23 <=1 
C329: x9+x26-y9_26 <=1 
C330: x9+x27 <=1 
C331: x9+x28 <=1 
C332: x9+x29 <=1 
C333: x9+x30-y9_30 <=1 
C334: x9+x31 <=1 
C335: x9+x32 <=1 
C336: x9+x33 <=1 
C337: x9+x34-y9_34 <=1 
C338: x9+x37 <=1 
C339: x9+x39 <=1 
C340: x9+x40 <=1 
C341: x9+x42-y9_42 <=1 
C342: x9+x43 <=1 
C343: x9+x44 <=1 
C344: x9+x46-y9_46 <=1 
C345: x9+x47-y9_47 <=1 
C346: x9+x48-y9_48 <=1 
C347: x9+x50 <=1 
C348: x9+x52 <=1 
C349: x9+x53 <=1 
C350: x9+x54 <=1 
C351: x9+x55 <=1 
C352: x9+x56 <=1 
C353: x9+x57 <=1 
C354: x9+x58-y9_58 <=1 
C355: x9+x59 <=1 
C356: x9+x61-y9_61 <=1 
C357: x9+x62 <=1 
C358: x9+x64-y9_64 <=1 
C359: x9+x65 <=1 
C360: x10+x11-y10_11 <=1 
C361: x10+x12 <=1 
C362: x10+x15-y10_15 <=1 
C363: x10+x17-y10_17 <=1 
C364: x10+x18-y10_18 <=1 
C365: x10+x19-y10_19 <=1 
C366: x10+x20 <=1 
C367: x10+x22 <=1 
C368: x10+x23-y10_23 <=1 
C369: x10+x27 <=1 
C370: x10+x29-y10_29 <=1 
C371: x10+x30-y10_30 <=1 
C372: x10+x34 <=1 
C373: x10+x35 <=1 
C374: x10+x36-y10_36 <=1 
C375: x10+x37-y10_37 <=1 
C376: x10+x38 <=1 
C377: x10+x40-y10_40 <=1 
C378: x10+x44-y10_44 <=1 
C379: x10+x45 <=1 
C380: x10+x46 <=1 
C381: x10+x48 <=1 
C382: x10+x49-y10_49 <=1 
C383: x10+x54-y10_54 <=1 
C384: x10+x57 <=1 
C385: x10+x61 <=1 
C386: x10+x62-y10_62 <=1 
C387: x10+x63-y10_63 <=1 
C388: x10+x65 <=1 
C389: x11+x12-y11_12 <=1 
C390: x11+x15 <=1 
C391: x11+x16 <=1 
C392: x11+x18-y11_18 <=1 
C393: x11+x20 <=1 
C394: x11+x21 <=1 
C395: x11+x22-y11_22 <=1 
C396: x11+x24 <=1 
C397: x11+x25-y11_25 <=1 
C398: x11+x27-y11_27 <=1 
C399: x11+x30 <=1 
C400: x11+x31 <=1 
C401: x11+x37-y11_37 <=1 
C402: x11+x38-y11_38 <=1 
C403: x11+x40 <=1 
C404: x11+x41-y11_41 <=1 
C405: x11+x43 <=1 
C406: x11+x44 <=1 
C407: x11+x48-y11_48 <=1 
C408: x11+x52 <=1 
C409: x11+x53-y11_53 <=1 
C410: x11+x55 <=1 
C411: x11+x56-y11_56 <=1 
C412: x11+x57 <=1 
C413: x11+x58 <=1 
C414: x11+x60-y11_60 <=1 
C415: x11+x61 <=1 
C416: x11+x63-y11_63 <=1 
C417: x11+x66-y11_66 <=1 
C418: x12+x17 <=1 
C419: x12+x18 <=1 
C420: x12+x19-y12_19 <=1 
C421: x12+x21-y12_21 <=1 
C422: x12+x23 <=1 
C423: x12+x24 <=1 
C424: x12+x25-y12_25 <=1 
C425: x12+x28-y12_28 <=1 
C426: x12+x29 <=1 
C427: x12+x30-y12_30 <=1 
C428: x12+x33 <=1 
C429: x12+x34 <=1 
C430: x12+x35 <=1 
C431: x12+x37 <=1 
C432: x12+x39-y12_39 <=1 
C433: x12+x40 <=1 
C434: x12+x41-y12_41 <=1 
C435: x12+x42-y12_42 <=1 
C436: x12+x44-y12_44 <=1 
C437: x12+x46-y12_46 <=1 
C438: x12+x48-y12_48 <=1 
C439: x12+x50 <=1 
C440: x12+x52 <=1 
C441: x12+x53-y12_53 <=1 
C442: x12+x54 <=1 
C443: x12+x56-y12_56 <=1 
C444: x12+x59 <=1 
C445: x12+x60 <=1 
C446: x12+x65 <=1 
C447: x12+x66 <=1 
C448: x13+x14 <=1 
C449: x13+x16 <=1 
C450: x13+x17 <=1 
C451: x13+x19 <=1 
C452: x13+x21-y13_21 <=1 
C453: x13+x23 <=1 
C454: x13+x24 <=1 
C455: x13+x27-y13_27 <=1 
C456: x13+x29-y13_29 <=1 
C457: x13+x30-y13_30 <=1 
C458: x13+x34-y13_34 <=1 
C459: x13+x35-y13_35 <=1 
C460: x13+x36 <=1 
C461: x13+x39 <=1 
C462: x13+x40 <=1 
C463: x13+x42 <=1 
C464: x13+x44-y13_44 <=1 
C465: x13+x47-y13_47 <=1 
C466: x13+x48-y13_48 <=1 
C467: x13+x49-y13_49 <=1 
C468: x13+x50-y13_50 <=1 
C469: x13+x52-y13_52 <=1 
C470: x13+x54-y13_54 <=1 
C471: x13+x55 <=1 
C472: x13+x57 <=1 
C473: x13+x58 <=1 
C474: x13+x64 <=1 
C475: x13+x65 <=1 
C476: x14+x15-y14_15 <=1 
C477: x14+x16 <=1 
C478: x14+x17 <=1 
C479: x14+x19-y14_19 <=1 
C480: x14+x20-y14_20 <=1 
C481: x14+x21-y14_21 <=1 
C482: x14+x22 <=1 
C483: x14+x24 <=1 
C484: x14+x26 <=1 
C485: x14+x27 <=1 
C486: x14+x28 <=1 
C487: x14+x29-y14_29 <=1 
C488: x14+x30 <=1 
C489: x14+x31-y14_31 <=1 
C490: x14+x32-y14_32 <=1 
C491: x14+x34 <=1 
C492: x14+x39-y14_39 <=1 
C493: x14+x43 <=1 
C494: x14+x44-y14_44 <=1 
C495: x14+x47-y14_47 <=1 
C496: x14+x49-y14_49 <=1 
C497: x14+x51-y14_51 <=1 
C498: x14+x52-y14_52 <=1 
C499: x14+x53 <=1 
C500: x14+x55 <=1 
C501: x14+x56-y14_56 <=1 
C502: x14+x57-y14_57 <=1 
C503: x14+x58-y14_58 <=1 
C504: x14+x60-y14_60 <=1 
C505: x14+x62-y14_62 <=1 
C506: x14+x66-y14_66 <=1 
C507: x15+x18 <=1 
C508: x15+x19 <=1 
C509: x15+x22 <=1 
C510: x15+x24 <=1 
C511: x15+x25-y15_25 <=1 
C512: x15+x26-y15_26 <=1 
C513: x15+x28-y15_28 <=1 
C514: x15+x30-y15_30 <=1 
C515: x15+x32-y15_32 <=1 
C516: x15+x33-y15_33 <=1 
C517: x15+x34-y15_34 <=1 
C518: x15+x37-y15_37 <=1 
C519: x15+x38 <=1 
C520: x15+x40-y15_40 <=1 
C521: x15+x43-y15_43 <=1 
C522: x15+x44-y15_44 <=1 
C523: x15+x46 <=1 
C524: x15+x47 <=1 
C525: x15+x48-y15_48 <=1 
C526: x15+x49-y15_49 <=1 
C527: x15+x50-y15_50 <=1 
C528: x15+x54-y15_54 <=1 
C529: x15+x55-y15_55 <=1 
C530: x15+x59-y15_59 <=1 
C531: x15+x60 <=1 
C532: x15+x61 <=1 
C533: x15+x62 <=1 
C534: x15+x63-y15_63 <=1 
C535: x16+x21-y16_21 <=1 
C536: x16+x25-y16_25 <=1 
C537: x16+x26-y16_26 <=1 
C538: x16+x28 <=1 
C539: x16+x33-y16_33 <=1 
C540: x16+x34 <=1 
C541: x16+x35-y16_35 <=1 
C542: x16+x38 <=1 
C543: x16+x39-y16_39 <=1 
C544: x16+x40 <=1 
C545: x16+x41-y16_41 <=1 
C546: x16+x42-y16_42 <=1 
C547: x16+x43 <=1 
C548: x16+x44-y16_44 <=1 
C549: x16+x45 <=1 
C550: x16+x49 <=1 
C551: x16+x52-y16_52 <=1 
C552: x16+x54-y16_54 <=1 
C553: x16+x55 <=1 
C554: x16+x57-y16_57 <=1 
C555: x16+x59-y16_59 <=1 
C556: x16+x62 <=1 
C557: x16+x63-y16_63 <=1 
C558: x16+x64-y16_64 <=1 
C559: x16+x66-y16_66 <=1 
C560: x17+x18-y17_18 <=1 
C561: x17+x25-y17_25 <=1 
C562: x17+x28 <=1 
C563: x17+x31-y17_31 <=1 
C564: x17+x32 <=1 
C565: x17+x33-y17_33 <=1 
C566: x17+x34 <=1 
C567: x17+x37-y17_37 <=1 
C568: x17+x38-y17_38 <=1 
C569: x17+x39-y17_39 <=1 
C570: x17+x41-y17_41 <=1 
C571: x17+x45 <=1 
C572: x17+x49 <=1 
C573: x17+x52 <=1 
C574: x17+x53 <=1 
C575: x17+x57 <=1 
C576: x17+x58-y17_58 <=1 
C577: x17+x60-y17_60 <=1 
C578: x17+x62-y17_62 <=1 
C579: x17+x63 <=1 
C580: x17+x64 <=1 
C581: x17+x66 <=1 
C582: x18+x24 <=1 
C583: x18+x25-y18_25 <=1 
C584: x18+x27-y18_27 <=1 
C585: x18+x32-y18_32 <=1 
C586: x18+x33-y18_33 <=1 
C587: x18+x34-y18_34 <=1 
C588: x18+x35-y18_35 <=1 
C589: x18+x36-y18_36 <=1 
C590: x18+x37-y18_37 <=1 
C591: x18+x38 <=1 
C592: x18+x44-y18_44 <=1 
C593: x18+x45-y18_45 <=1 
C594: x18+x46-y18_46 <=1 
C595: x18+x47 <=1 
C596: x18+x48 <=1 
C597: x18+x49-y18_49 <=1 
C598: x18+x51-y18_51 <=1 
C599: x18+x52-y18_52 <=1 
C600: x18+x53-y18_53 <=1 
C601: x18+x56 <=1 
C602: x18+x57-y18_57 <=1 
C603: x18+x62 <=1 
C604: x18+x64 <=1 
C605: x18+x65-y18_65 <=1 
C606: x19+x20-y19_20 <=1 
C607: x19+x23 <=1 
C608: x19+x24-y19_24 <=1 
C609: x19+x25 <=1 
C610: x19+x26-y19_26 <=1 
C611: x19+x27 <=1 
C612: x19+x28 <=1 
C613: x19+x30-y19_30 <=1 
C614: x19+x31 <=1 
C615: x19+x33-y19_33 <=1 
C616: x19+x34 <=1 
C617: x19+x35 <=1 
C618: x19+x38 <=1 
C619: x19+x44 <=1 
C620: x19+x45-y19_45 <=1 
C621: x19+x46 <=1 
C622: x19+x47 <=1 
C623: x19+x51 <=1 
C624: x19+x53-y19_53 <=1 
C625: x19+x54 <=1 
C626: x19+x60-y19_60 <=1 
C627: x19+x62 <=1 
C628: x19+x64-y19_64 <=1 
C629: x19+x65 <=1 
C630: x20+x22-y20_22 <=1 
C631: x20+x25 <=1 
C632: x20+x27 <=1 
C633: x20+x29-y20_29 <=1 
C634: x20+x30-y20_30 <=1 
C635: x20+x32-y20_32 <=1 
C636: x20+x33-y20_33 <=1 
C637: x20+x34 <=1 
C638: x20+x35 <=1 
C639: x20+x36 <=1 
C640: x20+x38 <=1 
C641: x20+x40-y20_40 <=1 
C642: x20+x41-y20_41 <=1 
C643: x20+x42-y20_42 <=1 
C644: x20+x43-y20_43 <=1 
C645: x20+x44-y20_44 <=1 
C646: x20+x46-y20_46 <=1 
C647: x20+x47-y20_47 <=1 
C648: x20+x48 <=1 
C649: x20+x49-y20_49 <=1 
C650: x20+x51 <=1 
C651: x20+x52-y20_52 <=1 
C652: x20+x54 <=1 
C653: x20+x56 <=1 
C654: x20+x57 <=1 
C655: x20+x59 <=1 
C656: x20+x60-y20_60 <=1 
C657: x20+x61 <=1 
C658: x20+x62 <=1 
C659: x20+x63-y20_63 <=1 
C660: x20+x66-y20_66 <=1 
C661: x21+x22-y21_22 <=1 
C662: x21+x25 <=1 
C663: x21+x26 <=1 
C664: x21+x27-y21_27 <=1 
C665: x21+x28-y21_28 <=1 
C666: x21+x31 <=1 
C667: x21+x32-y21_32 <=1 
C668: x21+x33-y21_33 <=1 
C669: x21+x34 <=1 
C670: x21+x35 <=1 
C671: x21+x36-y21_36 <=1 
C672: x21+x37 <=1 
C673: x21+x38 <=1 
C674: x21+x39-y21_39 <=1 
C675: x21+x40 <=1 
C676: x21+x42 <=1 
C677: x21+x44-y21_44 <=1 
C678: x21+x45 <=1 
C679: x21+x47-y21_47 <=1 
C680: x21+x48 <=1 
C681: x21+x49-y21_49 <=1 
C682: x21+x50-y21_50 <=1 
C683: x21+x51-y21_51 <=1 
C684: x21+x52 <=1 
C685: x21+x53-y21_53 <=1 
C686: x21+x54-y21_54 <=1 
C687: x21+x56 <=1 
C688: x21+x59 <=1 
C689: x21+x60 <=1 
C690: x21+x61 <=1 
C691: x21+x62 <=1 
C692: x21+x63 <=1 
C693: x21+x65-y21_65 <=1 
C694: x22+x23-y22_23 <=1 
C695: x22+x24 <=1 
C696: x22+x25-y22_25 <=1 
C697: x22+x26-y22_26 <=1 
C698: x22+x30 <=1 
C699: x22+x35 <=1 
C700: x22+x37 <=1 
C701: x22+x38-y22_38 <=1 
C702: x22+x40 <=1 
C703: x22+x41-y22_41 <=1 
C704: x22+x44-y22_44 <=1 
C705: x22+x45 <=1 
C706: x22+x46-y22_46 <=1 
C707: x22+x47 <=1 
C708: x22+x48 <=1 
C709: x22+x49 <=1 
C710: x22+x50-y22_50 <=1 
C711: x22+x51-y22_51 <=1 
C712: x22+x52-y22_52 <=1 
C713: x22+x54-y22_54 <=1 
C714: x22+x55-y22_55 <=1 
C715: x22+x56-y22_56 <=1 
C716: x22+x59 <=1 
C717: x22+x60-y22_60 <=1 
C718: x22+x65 <=1 
C719: x22+x66-y22_66 <=1 
C720: x23+x25 <=1 
C721: x23+x29-y23_29 <=1 
C722: x23+x30-y23_30 <=1 
C723: x23+x32 <=1 
C724: x23+x33 <=1 
C725: x23+x34-y23_34 <=1 
C726: x23+x36-y23_36 <=1 
C727: x23+x37 <=1 
C728: x23+x40 <=1 
C729: x23+x41-y23_41 <=1 
C730: x23+x43-y23_43 <=1 
C731: x23+x44-y23_44 <=1 
C732: x23+x46 <=1 
C733: x23+x49 <=1 
C734: x23+x50 <=1 
C735: x23+x51-y23_51 <=1 
C736: x23+x52 <=1 
C737: x23+x57-y23_57 <=1 
C738: x23+x58-y23_58 <=1 
C739: x23+x59-y23_59 <=1 
C740: x23+x61 <=1 
C741: x23+x62-y23_62 <=1 
C742: x23+x63 <=1 
C743: x23+x64-y23_64 <=1 
C744: x24+x25 <=1 
C745: x24+x27-y24_27 <=1 
C746: x24+x28 <=1 
C747: x24+x29-y24_29 <=1 
C748: x24+x30 <=1 
C749: x24+x34 <=1 
C750: x24+x35-y24_35 <=1 
C751: x24+x38 <=1 
C752: x24+x40-y24_40 <=1 
C753: x24+x42-y24_42 <=1 
C754: x24+x43-y24_43 <=1 
C755: x24+x44 <=1 
C756: x24+x45 <=1 
C757: x24+x46 <=1 
C758: x24+x49 <=1 
C759: x24+x50 <=1 
C760: x24+x52 <=1 
C761: x24+x56-y24_56 <=1 
C762: x24+x58 <=1 
C763: x24+x59 <=1 
C764: x24+x60-y24_60 <=1 
C765: x24+x61 <=1 
C766: x24+x62-y24_62 <=1 
C767: x24+x63 <=1 
C768: x24+x65 <=1 
C769: x25+x29-y25_29 <=1 
C770: x25+x31-y25_31 <=1 
C771: x25+x33-y25_33 <=1 
C772: x25+x36-y25_36 <=1 
C773: x25+x37 <=1 
C774: x25+x38-y25_38 <=1 
C775: x25+x39 <=1 
C776: x25+x40 <=1 
C777: x25+x41 <=1 
C778: x25+x42 <=1 
C779: x25+x43-y25_43 <=1 
C780: x25+x45 <=1 
C781: x25+x47 <=1 
C782: x25+x49 <=1 
C783: x25+x51 <=1 
C784: x25+x52-y25_52 <=1 
C785: x25+x53 <=1 
C786: x25+x54-y25_54 <=1 
C787: x25+x55-y25_55 <=1 
C788: x25+x56-y25_56 <=1 
C789: x25+x57 <=1 
C790: x25+x60 <=1 
C791: x25+x61 <=1 
C792: x25+x64-y25_64 <=1 
C793: x25+x65 <=1 
C794: x25+x66-y25_66 <=1 
C795: x26+x28-y26_28 <=1 
C796: x26+x30 <=1 
C797: x26+x31-y26_31 <=1 
C798: x26+x32-y26_32 <=1 
C799: x26+x33-y26_33 <=1 
C800: x26+x35-y26_35 <=1 
C801: x26+x36 <=1 
C802: x26+x39-y26_39 <=1 
C803: x26+x41 <=1 
C804: x26+x46-y26_46 <=1 
C805: x26+x47-y26_47 <=1 
C806: x26+x49-y26_49 <=1 
C807: x26+x53-y26_53 <=1 
C808: x26+x54-y26_54 <=1 
C809: x26+x56-y26_56 <=1 
C810: x26+x58-y26_58 <=1 
C811: x26+x60 <=1 
C812: x26+x61 <=1 
C813: x26+x63-y26_63 <=1 
C814: x26+x64-y26_64 <=1 
C815: x26+x65 <=1 
C816: x27+x28-y27_28 <=1 
C817: x27+x30-y27_30 <=1 
C818: x27+x31-y27_31 <=1 
C819: x27+x33 <=1 
C820: x27+x35 <=1 
C821: x27+x36 <=1 
C822: x27+x37 <=1 
C823: x27+x38-y27_38 <=1 
C824: x27+x39-y27_39 <=1 
C825: x27+x44 <=1 
C826: x27+x47-y27_47 <=1 
C827: x27+x48 <=1 
C828: x27+x49 <=1 
C829: x27+x50 <=1 
C830: x27+x52-y27_52 <=1 
C831: x27+x53-y27_53 <=1 
C832: x27+x54 <=1 
C833: x27+x57 <=1 
C834: x27+x59 <=1 
C835: x27+x60-y27_60 <=1 
C836: x27+x62 <=1 
C837: x27+x63-y27_63 <=1 
C838: x27+x64 <=1 
C839: x28+x29 <=1 
C840: x28+x32 <=1 
C841: x28+x33 <=1 
C842: x28+x34 <=1 
C843: x28+x37-y28_37 <=1 
C844: x28+x38-y28_38 <=1 
C845: x28+x41-y28_41 <=1 
C846: x28+x42 <=1 
C847: x28+x46 <=1 
C848: x28+x47-y28_47 <=1 
C849: x28+x48 <=1 
C850: x28+x49 <=1 
C851: x28+x52-y28_52 <=1 
C852: x28+x55 <=1 
C853: x28+x56 <=1 
C854: x28+x57-y28_57 <=1 
C855: x28+x58-y28_58 <=1 
C856: x28+x61 <=1 
C857: x28+x62-y28_62 <=1 
C858: x28+x64 <=1 
C859: x28+x65-y28_65 <=1 
C860: x28+x66 <=1 
C861: x29+x30-y29_30 <=1 
C862: x29+x31 <=1 
C863: x29+x32-y29_32 <=1 
C864: x29+x34-y29_34 <=1 
C865: x29+x35 <=1 
C866: x29+x36 <=1 
C867: x29+x38 <=1 
C868: x29+x40-y29_40 <=1 
C869: x29+x42-y29_42 <=1 
C870: x29+x43 <=1 
C871: x29+x45 <=1 
C872: x29+x46 <=1 
C873: x29+x48 <=1 
C874: x29+x50 <=1 
C875: x29+x51-y29_51 <=1 
C876: x29+x52 <=1 
C877: x29+x53-y29_53 <=1 
C878: x29+x56-y29_56 <=1 
C879: x29+x57-y29_57 <=1 
C880: x29+x59-y29_59 <=1 
C881: x29+x60 <=1 
C882: x29+x63-y29_63 <=1 
C883: x29+x64 <=1 
C884: x29+x66 <=1 
C885: x30+x32-y30_32 <=1 
C886: x30+x38-y30_38 <=1 
C887: x30+x43 <=1 
C888: x30+x44 <=1 
C889: x30+x45 <=1 
C890: x30+x46 <=1 
C891: x30+x47 <=1 
C892: x30+x48-y30_48 <=1 
C893: x30+x49-y30_49 <=1 
C894: x30+x50 <=1 
C895: x30+x51 <=1 
C896: x30+x52 <=1 
C897: x30+x53-y30_53 <=1 
C898: x30+x54 <=1 
C899: x30+x55-y30_55 <=1 
C900: x30+x56 <=1 
C901: x30+x60 <=1 
C902: x30+x61-y30_61 <=1 
C903: x30+x65 <=1 
C904: x31+x34 <=1 
C905: x31+x35-y31_35 <=1 
C906: x31+x36-y31_36 <=1 
C907: x31+x37 <=1 
C908: x31+x38 <=1 
C909: x31+x41 <=1 
C910: x31+x42-y31_42 <=1 
C911: x31+x43 <=1 
C912: x31+x45-y31_45 <=1 
C913: x31+x46-y31_46 <=1 
C914: x31+x47-y31_47 <=1 
C915: x31+x48 <=1 
C916: x31+x50-y31_50 <=1 
C917: x31+x51 <=1 
C918: x31+x52-y31_52 <=1 
C919: x31+x53-y31_53 <=1 
C920: x31+x57-y31_57 <=1 
C921: x31+x58 <=1 
C922: x31+x59-y31_59 <=1 
C923: x31+x60 <=1 
C924: x31+x61-y31_61 <=1 
C925: x31+x65-y31_65 <=1 
C926: x32+x33 <=1 
C927: x32+x34 <=1 
C928: x32+x35-y32_35 <=1 
C929: x32+x36 <=1 
C930: x32+x38 <=1 
C931: x32+x40-y32_40 <=1 
C932: x32+x44-y32_44 <=1 
C933: x32+x45 <=1 
C934: x32+x46 <=1 
C935: x32+x48-y32_48 <=1 
C936: x32+x50 <=1 
C937: x32+x51 <=1 
C938: x32+x52-y32_52 <=1 
C939: x32+x54-y32_54 <=1 
C940: x32+x55-y32_55 <=1 
C941: x32+x56 <=1 
C942: x32+x57-y32_57 <=1 
C943: x32+x58 <=1 
C944: x32+x59 <=1 
C945: x32+x60-y32_60 <=1 
C946: x32+x61-y32_61 <=1 
C947: x32+x62-y32_62 <=1 
C948: x32+x64-y32_64 <=1 
C949: x33+x37 <=1 
C950: x33+x38-y33_38 <=1 
C951: x33+x40 <=1 
C952: x33+x41 <=1 
C953: x33+x45 <=1 
C954: x33+x46-y33_46 <=1 
C955: x33+x47 <=1 
C956: x33+x50-y33_50 <=1 
C957: x33+x51-y33_51 <=1 
C958: x33+x54-y33_54 <=1 
C959: x33+x55-y33_55 <=1 
C960: x33+x56-y33_56 <=1 
C961: x33+x57 <=1 
C962: x33+x59 <=1 
C963: x33+x64 <=1 
C964: x34+x35 <=1 
C965: x34+x36-y34_36 <=1 
C966: x34+x40-y34_40 <=1 
C967: x34+x43-y34_43 <=1 
C968: x34+x44-y34_44 <=1 
C969: x34+x46-y34_46 <=1 
C970: x34+x47-y34_47 <=1 
C971: x34+x48-y34_48 <=1 
C972: x34+x49 <=1 
C973: x34+x50-y34_50 <=1 
C974: x34+x51 <=1 
C975: x34+x52 <=1 
C976: x34+x53 <=1 
C977: x34+x55-y34_55 <=1 
C978: x34+x57 <=1 
C979: x34+x59-y34_59 <=1 
C980: x34+x60 <=1 
C981: x34+x61 <=1 
C982: x34+x62-y34_62 <=1 
C983: x34+x64 <=1 
C984: x34+x65 <=1 
C985: x35+x37 <=1 
C986: x35+x42-y35_42 <=1 
C987: x35+x43 <=1 
C988: x35+x44 <=1 
C989: x35+x45 <=1 
C990: x35+x46-y35_46 <=1 
C991: x35+x50-y35_50 <=1 
C992: x35+x53-y35_53 <=1 
C993: x35+x55 <=1 
C994: x35+x58-y35_58 <=1 
C995: x35+x60-y35_60 <=1 
C996: x35+x62 <=1 
C997: x35+x64 <=1 
C998: x35+x65-y35_65 <=1 
C999: x35+x66 <=1 
C1000: x36+x38-y36_38 <=1 
C1001: x36+x39 <=1 
C1002: x36+x40-y36_40 <=1 
C1003: x36+x42 <=1 
C1004: x36+x43-y36_43 <=1 
C1005: x36+x44-y36_44 <=1 
C1006: x36+x46 <=1 
C1007: x36+x47 <=1 
C1008: x36+x48 <=1 
C1009: x36+x49-y36_49 <=1 
C1010: x36+x51-y36_51 <=1 
C1011: x36+x52-y36_52 <=1 
C1012: x36+x53 <=1 
C1013: x36+x55-y36_55 <=1 
C1014: x36+x56-y36_56 <=1 
C1015: x36+x57 <=1 
C1016: x36+x58 <=1 
C1017: x36+x59-y36_59 <=1 
C1018: x36+x62 <=1 
C1019: x36+x64 <=1 
C1020: x36+x65 <=1 
C1021: x37+x38 <=1 
C1022: x37+x40-y37_40 <=1 
C1023: x37+x41-y37_41 <=1 
C1024: x37+x42 <=1 
C1025: x37+x43 <=1 
C1026: x37+x48-y37_48 <=1 
C1027: x37+x49 <=1 
C1028: x37+x51-y37_51 <=1 
C1029: x37+x52-y37_52 <=1 
C1030: x37+x53-y37_53 <=1 
C1031: x37+x54 <=1 
C1032: x37+x55 <=1 
C1033: x37+x56-y37_56 <=1 
C1034: x37+x59-y37_59 <=1 
C1035: x37+x60 <=1 
C1036: x37+x62-y37_62 <=1 
C1037: x37+x64-y37_64 <=1 
C1038: x37+x65-y37_65 <=1 
C1039: x38+x39-y38_39 <=1 
C1040: x38+x41-y38_41 <=1 
C1041: x38+x42-y38_42 <=1 
C1042: x38+x44-y38_44 <=1 
C1043: x38+x46-y38_46 <=1 
C1044: x38+x48-y38_48 <=1 
C1045: x38+x51 <=1 
C1046: x38+x53 <=1 
C1047: x38+x54 <=1 
C1048: x38+x57 <=1 
C1049: x38+x58 <=1 
C1050: x38+x59-y38_59 <=1 
C1051: x38+x63 <=1 
C1052: x38+x64 <=1 
C1053: x38+x65 <=1 
C1054: x38+x66 <=1 
C1055: x39+x41-y39_41 <=1 
C1056: x39+x44 <=1 
C1057: x39+x45-y39_45 <=1 
C1058: x39+x50 <=1 
C1059: x39+x52 <=1 
C1060: x39+x53-y39_53 <=1 
C1061: x39+x55-y39_55 <=1 
C1062: x39+x57-y39_57 <=1 
C1063: x39+x59 <=1 
C1064: x39+x60-y39_60 <=1 
C1065: x39+x64 <=1 
C1066: x40+x41-y40_41 <=1 
C1067: x40+x42-y40_42 <=1 
C1068: x40+x43-y40_43 <=1 
C1069: x40+x46 <=1 
C1070: x40+x47 <=1 
C1071: x40+x50 <=1 
C1072: x40+x52-y40_52 <=1 
C1073: x40+x54 <=1 
C1074: x40+x55-y40_55 <=1 
C1075: x40+x57-y40_57 <=1 
C1076: x40+x59 <=1 
C1077: x40+x60 <=1 
C1078: x40+x62 <=1 
C1079: x40+x63-y40_63 <=1 
C1080: x40+x65 <=1 
C1081: x40+x66 <=1 
C1082: x41+x43-y41_43 <=1 
C1083: x41+x44-y41_44 <=1 
C1084: x41+x45 <=1 
C1085: x41+x47-y41_47 <=1 
C1086: x41+x49-y41_49 <=1 
C1087: x41+x51-y41_51 <=1 
C1088: x41+x52 <=1 
C1089: x41+x54 <=1 
C1090: x41+x56 <=1 
C1091: x41+x58 <=1 
C1092: x41+x59 <=1 
C1093: x41+x61-y41_61 <=1 
C1094: x41+x62 <=1 
C1095: x41+x63 <=1 
C1096: x41+x65-y41_65 <=1 
C1097: x41+x66-y41_66 <=1 
C1098: x42+x43 <=1 
C1099: x42+x44 <=1 
C1100: x42+x45-y42_45 <=1 
C1101: x42+x46 <=1 
C1102: x42+x47 <=1 
C1103: x42+x48 <=1 
C1104: x42+x49-y42_49 <=1 
C1105: x42+x52 <=1 
C1106: x42+x54-y42_54 <=1 
C1107: x42+x55-y42_55 <=1 
C1108: x42+x56 <=1 
C1109: x42+x57-y42_57 <=1 
C1110: x42+x58 <=1 
C1111: x42+x59-y42_59 <=1 
C1112: x42+x63-y42_63 <=1 
C1113: x42+x66-y42_66 <=1 
C1114: x43+x44-y43_44 <=1 
C1115: x43+x46 <=1 
C1116: x43+x47 <=1 
C1117: x43+x48 <=1 
C1118: x43+x51 <=1 
C1119: x43+x53-y43_53 <=1 
C1120: x43+x55 <=1 
C1121: x43+x57-y43_57 <=1 
C1122: x43+x58-y43_58 <=1 
C1123: x43+x60 <=1 
C1124: x43+x61-y43_61 <=1 
C1125: x43+x62-y43_62 <=1 
C1126: x43+x64 <=1 
C1127: x43+x66 <=1 
C1128: x44+x47 <=1 
C1129: x44+x48-y44_48 <=1 
C1130: x44+x50 <=1 
C1131: x44+x52-y44_52 <=1 
C1132: x44+x53 <=1 
C1133: x44+x55-y44_55 <=1 
C1134: x44+x56 <=1 
C1135: x44+x57-y44_57 <=1 
C1136: x44+x58 <=1 
C1137: x44+x60-y44_60 <=1 
C1138: x44+x61-y44_61 <=1 
C1139: x44+x62 <=1 
C1140: x44+x64 <=1 
C1141: x44+x65-y44_65 <=1 
C1142: x45+x46 <=1 
C1143: x45+x47 <=1 
C1144: x45+x48 <=1 
C1145: x45+x49 <=1 
C1146: x45+x51 <=1 
C1147: x45+x52 <=1 
C1148: x45+x54-y45_54 <=1 
C1149: x45+x55 <=1 
C1150: x45+x57-y45_57 <=1 
C1151: x45+x59 <=1 
C1152: x45+x60 <=1 
C1153: x45+x61-y45_61 <=1 
C1154: x45+x62 <=1 
C1155: x45+x63 <=1 
C1156: x46+x47 <=1 
C1157: x46+x50-y46_50 <=1 
C1158: x46+x51 <=1 
C1159: x46+x52-y46_52 <=1 
C1160: x46+x53 <=1 
C1161: x46+x54 <=1 
C1162: x46+x55 <=1 
C1163: x46+x56-y46_56 <=1 
C1164: x46+x57 <=1 
C1165: x46+x59-y46_59 <=1 
C1166: x46+x63 <=1 
C1167: x46+x66 <=1 
C1168: x47+x48 <=1 
C1169: x47+x51 <=1 
C1170: x47+x52-y47_52 <=1 
C1171: x47+x53-y47_53 <=1 
C1172: x47+x55-y47_55 <=1 
C1173: x47+x56-y47_56 <=1 
C1174: x47+x57-y47_57 <=1 
C1175: x47+x59 <=1 
C1176: x47+x60-y47_60 <=1 
C1177: x47+x61 <=1 
C1178: x47+x62-y47_62 <=1 
C1179: x47+x63 <=1 
C1180: x47+x64-y47_64 <=1 
C1181: x47+x65 <=1 
C1182: x48+x51-y48_51 <=1 
C1183: x48+x52-y48_52 <=1 
C1184: x48+x53-y48_53 <=1 
C1185: x48+x56-y48_56 <=1 
C1186: x48+x58 <=1 
C1187: x48+x61-y48_61 <=1 
C1188: x48+x62 <=1 
C1189: x48+x65-y48_65 <=1 
C1190: x49+x50 <=1 
C1191: x49+x51 <=1 
C1192: x49+x52 <=1 
C1193: x49+x54-y49_54 <=1 
C1194: x49+x55-y49_55 <=1 
C1195: x49+x57 <=1 
C1196: x49+x59-y49_59 <=1 
C1197: x49+x60-y49_60 <=1 
C1198: x49+x62 <=1 
C1199: x49+x64 <=1 
C1200: x49+x65 <=1 
C1201: x49+x66-y49_66 <=1 
C1202: x50+x51 <=1 
C1203: x50+x52 <=1 
C1204: x50+x53-y50_53 <=1 
C1205: x50+x54 <=1 
C1206: x50+x55-y50_55 <=1 
C1207: x50+x56-y50_56 <=1 
C1208: x50+x59 <=1 
C1209: x50+x60-y50_60 <=1 
C1210: x50+x62-y50_62 <=1 
C1211: x50+x64-y50_64 <=1 
C1212: x50+x65-y50_65 <=1 
C1213: x50+x66-y50_66 <=1 
C1214: x51+x52 <=1 
C1215: x51+x54 <=1 
C1216: x51+x57 <=1 
C1217: x51+x59 <=1 
C1218: x51+x60-y51_60 <=1 
C1219: x51+x61-y51_61 <=1 
C1220: x51+x62-y51_62 <=1 
C1221: x51+x64 <=1 
C1222: x51+x66-y51_66 <=1 
C1223: x52+x53-y52_53 <=1 
C1224: x52+x54 <=1 
C1225: x52+x57-y52_57 <=1 
C1226: x52+x58 <=1 
C1227: x52+x60 <=1 
C1228: x52+x61 <=1 
C1229: x52+x62-y52_62 <=1 
C1230: x52+x65 <=1 
C1231: x53+x54-y53_54 <=1 
C1232: x53+x55-y53_55 <=1 
C1233: x53+x57 <=1 
C1234: x53+x58 <=1 
C1235: x53+x59-y53_59 <=1 
C1236: x53+x60 <=1 
C1237: x53+x61-y53_61 <=1 
C1238: x53+x64-y53_64 <=1 
C1239: x54+x55-y54_55 <=1 
C1240: x54+x56 <=1 
C1241: x54+x60-y54_60 <=1 
C1242: x54+x61 <=1 
C1243: x54+x63-y54_63 <=1 
C1244: x54+x64-y54_64 <=1 
C1245: x55+x56-y55_56 <=1 
C1246: x55+x58-y55_58 <=1 
C1247: x55+x60 <=1 
C1248: x55+x63 <=1 
C1249: x55+x64-y55_64 <=1 
C1250: x55+x65-y55_65 <=1 
C1251: x55+x66 <=1 
C1252: x56+x59 <=1 
C1253: x56+x60 <=1 
C1254: x56+x63-y56_63 <=1 
C1255: x56+x66-y56_66 <=1 
C1256: x57+x59-y57_59 <=1 
C1257: x57+x60 <=1 
C1258: x57+x61-y57_61 <=1 
C1259: x57+x64-y57_64 <=1 
C1260: x57+x65-y57_65 <=1 
C1261: x57+x66-y57_66 <=1 
C1262: x58+x60-y58_60 <=1 
C1263: x58+x61-y58_61 <=1 
C1264: x58+x63 <=1 
C1265: x59+x60-y59_60 <=1 
C1266: x59+x62-y59_62 <=1 
C1267: x59+x63-y59_63 <=1 
C1268: x59+x64 <=1 
C1269: x60+x62 <=1 
C1270: x60+x63 <=1 
C1271: x60+x64-y60_64 <=1 
C1272: x60+x65-y60_65 <=1 
C1273: x60+x66-y60_66 <=1 
C1274: x61+x64 <=1 
C1275: x61+x65 <=1 
C1276: x61+x66 <=1 
C1277: x62+x65-y62_65 <=1 
C1278: x62+x66 <=1 
C1279: x63+x64-y63_64 <=1 
C1280: x63+x66 <=1 
C1281: x64+x65 <=1 
C1282: x65+x66 <=1 

binary
x0
x1
x2
x3
x4
x5
x6
x7
x8
x9
x10
x11
x12
x13
x14
x15
x16
x17
x18
x19
x20
x21
x22
x23
x24
x25
x26
x27
x28
x29
x30
x31
x32
x33
x34
x35
x36
x37
x38
x39
x40
x41
x42
x43
x44
x45
x46
x47
x48
x49
x50
x51
x52
x53
x54
x55
x56
x57
x58
x59
x60
x61
x62
x63
x64
x65
x66
